(declare-const p21 Real)
(declare-const p16_67 Real)
(declare-const income Real)
(declare-const p17_5 Real)
(declare-const p14_95 Real)
(declare-const fee_bl Real)
(declare-const special Real)
(declare-const sin Real)
(declare-const p8_79 Real)
(assert (= p8_79 (* 0.0879 (ite (> income 30507) 30507 income))))
(assert (= p14_95 (ite (> income 30507) (* 0.1495 (- (ite (> income 61015) 61015 income) 30507)) 0)))
(assert (= p16_67 (ite (> income 61015) (* 0.1667 (- (ite (> income 95883) 95883 income) 61015)) 0)))
(assert (= p17_5 (ite (> income 95883) (* 0.175 (- (ite (> income 154650) 154650 income) 95883)) 0)))
(assert (= p21 (ite (> income 154650) (* 0.21 (- income 154650)) 0)))
(assert (= special (ite (>= sin 900000000) 0 1)))
(assert (= fee_bl (* special (+ (+ (+ (+ p8_79 p14_95) p16_67) p17_5) p21))))